benchmarks_vrp/CMT1/min_c/CMT1_3.vrp
NAME: CMT1_3
TYPE: CVRP
COMMENT: 524.61 - Cluster Nr.3
DIMENSION: 16
CAPACITY: 160
EDGE_WEIGHT_TYPE: EUC_2D
NODE_COORD_TYPE: TWOD_COORDS
NODE_COORD_SECTION: 
4 46 10
14 58 27
7 51 21
2 45 35
3 59 15
5 31 32
10 32 39
11 40 30
15 30 40
8 36 16
16 27 23
1 52 33
12 30 15
13 39 10
9 48 28
6 32 22
DEPOT_SECTION: 
15
-1
DEMAND_SECTION: 
14 19
16 3
2 15
6 9
10 5
13 10
15 0
1 11
9 18
11 21
3 14
7 5
4 23
5 29
8 10
12 16
EOF
