benchmarks_vrp/CMT1/min_c/CMT1_3.tour
NAME: CMT1_3 solution
TYPE: TOUR
TOUR_SECTION:
15 10 11 5 -1
15 2 9 1 14 7 3 4 13 8 12 6 16 -1
-1
EOF